true true true
presolving:
presolving (0 rounds: 0 fast, 0 medium, 0 exhaustive):
 0 deleted vars, 0 deleted constraints, 0 added constraints, 0 tightened bounds, 0 added holes, 0 changed sides, 0 changed coefficients
 0 implications, 0 cliques
presolved problem has 58 variables (58 bin, 0 int, 0 impl, 0 cont) and 48 constraints
     48 constraints of type <linear>
transformed objective value is always integral (scale: 1)
Presolving Time: 0.00

 time | node  | left  |LP iter|LP it/n|mem/heur|mdpt |vars |cons |rows |cuts |sepa|confs|strbr|  dualbound   | primalbound  |  gap   | compl. 
p 0.0s|     1 |     0 |     0 |     - |shiftand|   0 |  58 |  48 |  48 |   0 |  0 |   0 |   0 |      --      | 1.000000e+01 |    Inf | unknown
 time | node  | left  |LP iter|LP it/n|mem/heur|mdpt |vars |cons |rows |cuts |sepa|confs|strbr|  dualbound   | primalbound  |  gap   | compl. 
  0.0s|     1 |     0 |    39 |     - |  2680k |   0 | 650 |  48 |  48 |   0 |  0 |   0 |   0 |-9.900000e+01 | 1.000000e+01 |    Inf | unknown
 time | node  | left  |LP iter|LP it/n|mem/heur|mdpt |vars |cons |rows |cuts |sepa|confs|strbr|  dualbound   | primalbound  |  gap   | compl. 
  1.3s|     1 |     0 |   338 |     - |  6193k |   0 |1850 |  48 |  48 |   0 |  0 |   0 |   0 | 9.000000e+00 | 1.000000e+01 |  11.11%| unknown
 time | node  | left  |LP iter|LP it/n|mem/heur|mdpt |vars |cons |rows |cuts |sepa|confs|strbr|  dualbound   | primalbound  |  gap   | compl. 
  1.5s|     1 |     2 |   823 |     - |  6934k |   0 |1850 |  48 |  48 |   0 |  1 |   0 |   0 | 9.000000e+00 | 1.000000e+01 |  11.11%| unknown
 time | node  | left  |LP iter|LP it/n|mem/heur|mdpt |vars |cons |rows |cuts |sepa|confs|strbr|  dualbound   | primalbound  |  gap   | compl. 
  1.5s|     2 |     3 |   846 |  23.0 |  6990k |   1 |1850 |  48 |  48 |   0 |  1 |   0 |   0 | 9.000000e+00 | 1.000000e+01 |  11.11%| unknown
 time | node  | left  |LP iter|LP it/n|mem/heur|mdpt |vars |cons |rows |cuts |sepa|confs|strbr|  dualbound   | primalbound  |  gap   | compl. 
  1.6s|     3 |     4 |   865 |  21.0 |  7391k |   1 |1850 |  48 |  48 |   0 |  1 |   0 |   0 | 9.000000e+00 | 1.000000e+01 |  11.11%| unknown
 time | node  | left  |LP iter|LP it/n|mem/heur|mdpt |vars |cons |rows |cuts |sepa|confs|strbr|  dualbound   | primalbound  |  gap   | compl. 
  1.7s|     4 |     5 |   903 |  26.7 |  7428k |   2 |1850 |  48 |  48 |   0 |  1 |   0 |   0 | 9.000000e+00 | 1.000000e+01 |  11.11%| unknown
 time | node  | left  |LP iter|LP it/n|mem/heur|mdpt |vars |cons |rows |cuts |sepa|confs|strbr|  dualbound   | primalbound  |  gap   | compl. 
  1.8s|     5 |     6 |   905 |  20.5 |  7690k |   2 |1850 |  48 |  48 |   0 |  1 |   0 |   0 | 9.000000e+00 | 1.000000e+01 |  11.11%| unknown
 time | node  | left  |LP iter|LP it/n|mem/heur|mdpt |vars |cons |rows |cuts |sepa|confs|strbr|  dualbound   | primalbound  |  gap   | compl. 
  1.9s|     6 |     7 |   918 |  19.0 |  7702k |   3 |1850 |  48 |  48 |   0 |  1 |   0 |   0 | 9.000000e+00 | 1.000000e+01 |  11.11%| unknown
 time | node  | left  |LP iter|LP it/n|mem/heur|mdpt |vars |cons |rows |cuts |sepa|confs|strbr|  dualbound   | primalbound  |  gap   | compl. 
  2.0s|     7 |     8 |   930 |  17.8 |  7703k |   4 |1850 |  48 |  48 |   0 |  1 |   0 |   0 | 9.000000e+00 | 1.000000e+01 |  11.11%| unknown
 time | node  | left  |LP iter|LP it/n|mem/heur|mdpt |vars |cons |rows |cuts |sepa|confs|strbr|  dualbound   | primalbound  |  gap   | compl. 
  2.1s|     8 |     9 |   936 |  16.1 |  7705k |   5 |1850 |  48 |  48 |   0 |  1 |   0 |   0 | 9.000000e+00 | 1.000000e+01 |  11.11%| unknown
 time | node  | left  |LP iter|LP it/n|mem/heur|mdpt |vars |cons |rows |cuts |sepa|confs|strbr|  dualbound   | primalbound  |  gap   | compl. 
  2.2s|     9 |    10 |   948 |  15.6 |  7706k |   6 |1850 |  48 |  48 |   0 |  1 |   0 |   0 | 9.000000e+00 | 1.000000e+01 |  11.11%| unknown
 time | node  | left  |LP iter|LP it/n|mem/heur|mdpt |vars |cons |rows |cuts |sepa|confs|strbr|  dualbound   | primalbound  |  gap   | compl. 
  2.3s|    10 |    11 |   985 |  18.0 |  7707k |   6 |1850 |  48 |  48 |   0 |  1 |   0 |   0 | 9.000000e+00 | 1.000000e+01 |  11.11%| unknown
 time | node  | left  |LP iter|LP it/n|mem/heur|mdpt |vars |cons |rows |cuts |sepa|confs|strbr|  dualbound   | primalbound  |  gap   | compl. 
  2.4s|    11 |    12 |  1248 |  42.5 |  7776k |   7 |1850 |  48 |  48 |   0 |  1 |   0 |   0 | 9.000000e+00 | 1.000000e+01 |  11.11%| unknown
 time | node  | left  |LP iter|LP it/n|mem/heur|mdpt |vars |cons |rows |cuts |sepa|confs|strbr|  dualbound   | primalbound  |  gap   | compl. 
  2.6s|    12 |    13 |  1276 |  41.2 |  7778k |   7 |1850 |  48 |  48 |   0 |  1 |   0 |   0 | 9.000000e+00 | 1.000000e+01 |  11.11%| unknown
 time | node  | left  |LP iter|LP it/n|mem/heur|mdpt |vars |cons |rows |cuts |sepa|confs|strbr|  dualbound   | primalbound  |  gap   | compl. 
  2.7s|    13 |    14 |  1292 |  39.1 |  7787k |   7 |1850 |  48 |  48 |   0 |  1 |   0 |   0 | 9.000000e+00 | 1.000000e+01 |  11.11%| unknown
 time | node  | left  |LP iter|LP it/n|mem/heur|mdpt |vars |cons |rows |cuts |sepa|confs|strbr|  dualbound   | primalbound  |  gap   | compl. 
  2.8s|    14 |    15 |  1316 |  37.9 |  7788k |   7 |1850 |  48 |  48 |   0 |  1 |   0 |   0 | 9.000000e+00 | 1.000000e+01 |  11.11%| unknown
 time | node  | left  |LP iter|LP it/n|mem/heur|mdpt |vars |cons |rows |cuts |sepa|confs|strbr|  dualbound   | primalbound  |  gap   | compl. 
  3.0s|    15 |    16 |  1336 |  36.6 |  7789k |   7 |1850 |  48 |  48 |   0 |  1 |   0 |   0 | 9.000000e+00 | 1.000000e+01 |  11.11%| unknown
 time | node  | left  |LP iter|LP it/n|mem/heur|mdpt |vars |cons |rows |cuts |sepa|confs|strbr|  dualbound   | primalbound  |  gap   | compl. 
  3.1s|    16 |    17 |  1362 |  35.9 |  7796k |   8 |1850 |  48 |  48 |   0 |  1 |   0 |   0 | 9.000000e+00 | 1.000000e+01 |  11.11%| unknown
 time | node  | left  |LP iter|LP it/n|mem/heur|mdpt |vars |cons |rows |cuts |sepa|confs|strbr|  dualbound   | primalbound  |  gap   | compl. 
  3.3s|    17 |    18 |  1376 |  34.6 |  7796k |   8 |1850 |  48 |  48 |   0 |  1 |   0 |   0 | 9.000000e+00 | 1.000000e+01 |  11.11%| unknown
 time | node  | left  |LP iter|LP it/n|mem/heur|mdpt |vars |cons |rows |cuts |sepa|confs|strbr|  dualbound   | primalbound  |  gap   | compl. 
r 3.4s|    18 |     0 |  1387 |  33.2 |simplero|   9 |1850 |  48 |  48 |   0 |  0 |   0 |   0 | 9.000000e+00 | 9.000000e+00 |   0.00%|  99.93%

SCIP Status        : problem is solved [optimal solution found]
Solving Time (sec) : 3.43
Solving Nodes      : 18
Primal Bound       : +9.00000000000000e+00 (4 solutions)
Dual Bound         : +9.00000000000000e+00
Gap                : 0.00 %
Running with parallel: True bidir: True symbreak: True
Number of Nodes:  48
48.878761574074076% holds
starting cheapest insertion heuristic
Heuristic without TSP improvement:  10
Heuristic without TSP improvement time:  0.1
Heuristic Sol:  10
Heuristic total time:  0.1
[[21, 28, 18, 15, 13], [47, 2, 25, 26], [46, 0, 34, 16, 32, 38, 14, 44], [45, 9, 6, 4, 19, 41, 8], [43, 10, 12], [42, 17, 40, 20, 5], [39, 23, 11, 36, 31, 3], [37, 27, 24, 29], [35], [33, 1, 22, 7, 30]]
Instance path:  /home/htc/mghannam/SCRATCH/lccp-rust/data/t84_hk48.npcc
Timelimit:  7200
Heuristic without TSP improvement:  10
Heuristic without TSP improvement time:  0.1
Heuristic Sol:  10
Heuristic total time:  0.2
at 1 zero_duals: 38
Switching to elementary pricing
at1, LP obj: 10.0 n_added_paths: 592
updated lowerbound from -1e+20 to -99
at 1 zero_duals: 23
at1, LP obj: 10.0 n_added_paths: 168
at 1 zero_duals: 11
at1, LP obj: 9.3125 n_added_paths: 269
at 1 zero_duals: 8
at1, LP obj: 9.050314465408805 n_added_paths: 268
at 1 zero_duals: 3
Switching to elementary pricing
at1, LP obj: 8.814159292035399 n_added_paths: 330
updated lowerbound from 1.0 to 2
Switching to elementary pricing
at1, LP obj: 8.452898550724639 n_added_paths: 78
updated lowerbound from 2.0 to 7
at 1 zero_duals: 2
Switching to elementary pricing
at1, LP obj: 8.25 n_added_paths: 79
at 1 zero_duals: 6
Switching to elementary pricing
at1, LP obj: 8.242424242424242 n_added_paths: 8
updated lowerbound from 7.0 to 9
Gap too small = 0, stopping pricing with lb = 9
Gap too small = 0, stopping pricing with lb = 9
Gap too small = 0, stopping pricing with lb = 9
Gap too small = 0, stopping pricing with lb = 9
Gap too small = 0, stopping pricing with lb = 9
Gap too small = 0, stopping pricing with lb = 9
Gap too small = 0, stopping pricing with lb = 9
Gap too small = 0, stopping pricing with lb = 9
Gap too small = 0, stopping pricing with lb = 9
Gap too small = 0, stopping pricing with lb = 9
Gap too small = 0, stopping pricing with lb = 9
Gap too small = 0, stopping pricing with lb = 9
Gap too small = 0, stopping pricing with lb = 9
Gap too small = 0, stopping pricing with lb = 9
Gap too small = 0, stopping pricing with lb = 9
Gap too small = 0, stopping pricing with lb = 9
Gap too small = 0, stopping pricing with lb = 9
Gap too small = 0, stopping pricing with lb = 9
Best solution found:
t_[21, 28, 18, 15, 13, 21] 1.0 1.0
checking cycle [21, 28, 18, 15, 13, 21]
[21, 28, 18, 15, 13, 21] 1930 1840
[43, 35, 10, 43] 1.0 1.0
checking cycle [43, 35, 10, 43]
[43, 35, 10, 43] 1562 1357
[39, 11, 22, 3, 39] 1.0 1.0
checking cycle [39, 11, 22, 3, 39]
[39, 11, 22, 3, 39] 1713 1605
[33, 30, 12, 25, 2, 7, 33] 1.0 1.0
checking cycle [33, 30, 12, 25, 2, 7, 33]
[33, 30, 12, 25, 2, 7, 33] 1850 1753
[37, 29, 24, 27, 6, 4, 37] 1.0 1.0
checking cycle [37, 29, 24, 27, 6, 4, 37]
[37, 29, 24, 27, 6, 4, 37] 1780 1115
[42, 38, 32, 41, 19, 9, 40, 42] 1.0 1.0
checking cycle [42, 38, 32, 41, 19, 9, 40, 42]
[42, 38, 32, 41, 19, 9, 40, 42] 1640 1608
[47, 26, 23, 31, 47] 1.0 1.0
checking cycle [47, 26, 23, 31, 47]
[47, 26, 23, 31, 47] 1438 1290
[46, 0, 34, 16, 45, 8, 36, 44, 46] 1.0 1.0
checking cycle [46, 0, 34, 16, 45, 8, 36, 44, 46]
[46, 0, 34, 16, 45, 8, 36, 44, 46] 1479 1388
[20, 17, 14, 1, 5, 20] 1.0 1.0
checking cycle [20, 17, 14, 1, 5, 20]
[20, 17, 14, 1, 5, 20] 2227 2212
